p cnf 135 463
3 -1 0
3 2 0
1 -2 -3 0
-3 -4 -5 0
3 4 -5 0
-3 4 5 0
3 -4 5 0
7 6 0
7 -2 0
-6 2 -7 0
5 7 -8 0
-5 -7 -8 0
5 -7 8 0
-5 7 8 0
-4 -10 -11 0
4 10 -11 0
-4 10 11 0
4 -10 11 0
-11 6 -12 0
11 -6 -12 0
-11 -6 12 0
11 6 12 0
-13 -9 0
-13 12 0
9 -12 13 0
-15 13 0
-15 14 0
-13 -14 15 0
-16 -15 0
-16 1 0
15 -1 16 0
-18 6 0
-18 10 0
-6 -10 18 0
-19 17 0
-19 18 0
-17 -18 19 0
-20 -16 0
-20 19 0
16 -19 20 0
-22 -2 0
-22 -21 0
2 21 22 0
-21 -23 0
21 -23 0
-23 -24 -25 0
23 24 -25 0
-23 24 25 0
23 -24 25 0
-26 22 0
-26 25 0
-22 -25 26 0
6 26 -27 0
-6 -26 -27 0
6 -26 27 0
-6 26 27 0
28 -20 0
28 -27 0
20 27 -28 0
-1 -11 -30 0
1 11 -30 0
-1 11 30 0
1 -11 30 0
-32 4 0
-32 31 0
-4 -31 32 0
-30 32 -33 0
30 -32 -33 0
-30 -32 33 0
30 32 33 0
17 33 -34 0
-17 -33 -34 0
17 -33 34 0
-17 33 34 0
29 -34 -35 0
-29 34 -35 0
29 34 35 0
-29 -34 35 0
36 -35 0
36 1 0
35 -1 -36 0
-37 36 0
-37 -16 0
-36 16 37 0
38 -28 0
38 37 0
28 -37 -38 0
-39 8 0
-39 -38 0
-8 38 39 0
-40 9 0
-40 23 0
-9 -23 40 0
-41 -40 0
-41 -21 0
40 21 41 0
42 -24 0
42 -1 0
24 1 -42 0
9 -10 -43 0
-9 10 -43 0
9 10 43 0
-9 -10 43 0
-44 -10 0
-44 43 0
10 -43 44 0
-45 -42 0
-45 -44 0
42 44 45 0
11 -4 -47 0
-11 4 -47 0
11 4 47 0
-11 -4 47 0
-48 -18 0
-48 -47 0
18 47 48 0
49 -46 0
49 -48 0
46 48 -49 0
34 31 -50 0
-34 -31 -50 0
34 -31 50 0
-34 31 50 0
51 40 0
51 50 0
-40 -50 -51 0
-52 51 0
-52 50 0
-51 -50 52 0
49 -52 -53 0
-49 52 -53 0
49 52 53 0
-49 -52 53 0
54 -21 0
54 -1 0
21 1 -54 0
-55 -54 0
-55 -25 0
54 25 55 0
-56 36 0
-56 -55 0
-36 55 56 0
57 -56 0
57 13 0
56 -13 -57 0
-53 57 -58 0
53 -57 -58 0
-53 -57 58 0
53 57 58 0
59 -45 0
59 58 0
45 -58 -59 0
60 41 0
60 59 0
-41 -59 -60 0
-39 -60 -61 0
39 60 -61 0
-39 60 61 0
39 -60 61 0
-63 -62 0
-63 -4 0
62 4 63 0
-34 63 -64 0
34 -63 -64 0
-34 -63 64 0
34 63 64 0
65 34 0
65 -64 0
-34 64 -65 0
-66 12 0
-66 -62 0
-12 62 66 0
-65 -66 -67 0
65 66 -67 0
-65 66 67 0
65 -66 67 0
23 67 -68 0
-23 -67 -68 0
23 -67 68 0
-23 67 68 0
34 -21 -69 0
-34 21 -69 0
34 21 69 0
-34 -21 69 0
68 -69 -70 0
-68 69 -70 0
68 69 70 0
-68 -69 70 0
66 -71 0
-66 -71 0
-70 -71 -72 0
70 71 -72 0
-70 71 72 0
70 -71 72 0
-73 61 0
-73 72 0
-61 -72 73 0
-22 21 -74 0
22 -21 -74 0
-22 -21 74 0
22 21 74 0
-75 -24 0
-75 74 0
24 -74 75 0
76 -75 0
76 21 0
75 -21 -76 0
-77 -73 0
-77 76 0
73 -76 77 0
78 32 0
78 -54 0
-32 54 -78 0
2 -78 -79 0
-2 78 -79 0
2 78 79 0
-2 -78 79 0
66 -34 -80 0
-66 34 -80 0
66 34 80 0
-66 -34 80 0
81 -80 0
81 -21 0
80 21 -81 0
-82 -79 0
-82 81 0
79 -81 82 0
-83 1 0
-83 17 0
-1 -17 83 0
84 -12 0
84 -83 0
12 83 -84 0
-85 21 0
-85 -47 0
-21 47 85 0
-86 84 0
-86 -85 0
-84 85 86 0
-42 64 -87 0
42 -64 -87 0
-42 -64 87 0
42 64 87 0
88 -87 0
88 -29 0
87 29 -88 0
63 -65 -89 0
-63 65 -89 0
63 65 89 0
-63 -65 89 0
88 -89 -90 0
-88 89 -90 0
88 89 90 0
-88 -89 90 0
-11 -16 -91 0
11 16 -91 0
-11 16 91 0
11 -16 91 0
-90 -91 -92 0
90 91 -92 0
-90 91 92 0
90 -91 92 0
86 -92 -93 0
-86 92 -93 0
86 92 93 0
-86 -92 93 0
-17 -25 -95 0
17 25 -95 0
-17 25 95 0
17 -25 95 0
95 96 -97 0
-95 -96 -97 0
95 -96 97 0
-95 96 97 0
97 -20 -98 0
-97 20 -98 0
97 20 98 0
-97 -20 98 0
-99 15 0
-99 -98 0
-15 98 99 0
100 -18 0
100 18 0
-101 -99 0
-101 100 0
99 -100 101 0
-102 94 0
-102 101 0
-94 -101 102 0
-16 100 -103 0
16 -100 -103 0
-16 -100 103 0
16 100 103 0
102 -103 -104 0
-102 103 -104 0
102 103 104 0
-102 -103 104 0
-105 12 0
-105 -23 0
-12 23 105 0
-106 31 0
-106 -13 0
-31 13 106 0
-107 35 0
-107 -23 0
-35 23 107 0
-108 -35 0
-108 74 0
35 -74 108 0
-108 -26 -109 0
108 26 -109 0
-108 26 109 0
108 -26 109 0
-107 109 -110 0
107 -109 -110 0
-107 -109 110 0
107 109 110 0
111 -16 0
111 -42 0
16 42 -111 0
-112 111 0
-112 74 0
-111 -74 112 0
113 110 0
113 112 0
-110 -112 -113 0
-114 35 0
-114 -96 0
-35 96 114 0
-115 -67 0
-115 -114 0
67 114 115 0
113 115 -116 0
-113 -115 -116 0
113 -115 116 0
-113 115 116 0
117 -106 0
117 -116 0
106 116 -117 0
118 -105 0
118 117 0
105 -117 -118 0
-43 -50 -119 0
43 50 -119 0
-43 50 119 0
43 -50 119 0
-74 14 -120 0
74 -14 -120 0
-74 -14 120 0
74 14 120 0
-121 -119 0
-121 120 0
119 -120 121 0
-15 -40 -122 0
15 40 -122 0
-15 40 122 0
15 -40 122 0
123 2 0
123 -122 0
-2 122 -123 0
-51 16 -124 0
51 -16 -124 0
-51 -16 124 0
51 16 124 0
-123 124 -125 0
123 -124 -125 0
-123 -124 125 0
123 124 125 0
126 -121 0
126 -125 0
121 125 -126 0
127 118 0
127 -126 0
-118 126 -127 0
-104 127 -128 0
104 -127 -128 0
-104 -127 128 0
104 127 128 0
-93 -128 -129 0
93 128 -129 0
-93 128 129 0
93 -128 129 0
-130 82 0
-130 129 0
-82 -129 130 0
131 56 0
131 87 0
-56 -87 -131 0
43 75 -132 0
-43 -75 -132 0
43 -75 132 0
-43 75 132 0
-133 -131 0
-133 132 0
131 -132 133 0
-134 130 0
-134 -133 0
-130 133 134 0
-77 134 -135 0
77 -134 -135 0
-77 -134 135 0
77 134 135 0
63 -48 -132 -76 98 0
15 -31 -81 54 -113 76 0
-46 -18 110 -41 -73 -54 0
85 -32 0
-24 -123 -6 -135 0
-93 -133 -16 -116 0
25 -34 0
97 -107 0
-120 -95 0
-135 34 -29 85 117 0
-13 -52 -70 0
47 -134 -41 -88 68 106 0
-81 62 134 0
-25 42 0
-71 -78 109 -4 0
-76 -49 -87 101 -8 -52 0
127 -4 -108 103 0
-91 -48 -26 80 0
8 -61 -7 90 1 0
17 -131 0
134 -34 -78 -23 0
13 105 -112 18 -91 -113 0
-7 -97 -105 124 0
-1 120 0
-45 88 -114 28 0
127 67 -78 0
60 -55 -8 0
-46 -26 -49 47 81 -108 0
-36 -76 -38 21 -68 0
70 51 0
-114 21 -58 88 -11 -7 0
66 -99 5 0
1 109 89 -37 121 36 0
-45 -31 0
-14 73 55 -118 -106 -37 0
-109 -133 135 0
2 113 -131 3 -51 0
-49 11 -88 -126 0
96 100 87 -54 64 0
-53 80 55 -64 74 19 0
-38 88 42 33 0
39 42 126 110 45 0
102 -80 -109 79 0
-2 122 -125 72 -64 0
-27 118 -58 -116 72 111 0
-97 -123 -125 53 -114 -127 0
-104 70 -129 0
40 10 -85 41 98 95 0
-76 98 -95 0
-51 -32 -39 -90 79 91 0
42 -53 85 -94 0
-120 -105 -83 -104 0
-30 -47 -16 -9 -1 -74 0
-128 -85 2 15 -95 0
90 125 0
-37 108 133 -74 -84 0
8 -107 -31 -118 95 -23 0
78 98 -130 -97 74 93 0
-55 8 0
104 -4 -8 -82 0
135 0
